&bands
  outdir='../out'
  prefix='si'
  filband='si.bands.dat'

/
